(set-logic ALL)
(declare-const case_VAR String)
(declare-const num_qubits_VAR Int)
(assert (= (+ num_qubits_VAR 1) 1))
(assert (not (= case_VAR "balanced")))
(assert (= case_VAR "constant"))
(assert (= (+ num_qubits_VAR 1) 1))
(assert (not (= num_qubits_VAR 0)))
(check-sat)
(get-value (case_VAR))
(get-value (num_qubits_VAR))
